benchmarks/bfuzz0/196703885452712847263713022940077807.smt2
(set-logic QF_FP)
(declare-const x0 (_ FloatingPoint 11 53))
(declare-const x1 (_ FloatingPoint 11 53))
(declare-const x2 (_ FloatingPoint 11 53))
(declare-const x3 (_ FloatingPoint 11 53))
(declare-const x4 (_ FloatingPoint 11 53))
(declare-const x5 (_ FloatingPoint 11 53))
(declare-const x6 (_ FloatingPoint 11 53))
(declare-const x7 (_ FloatingPoint 11 53))
(declare-const x8 (_ FloatingPoint 11 53))
(declare-const x9 (_ FloatingPoint 11 53))
(declare-const x10 (_ FloatingPoint 11 53))
(declare-const x11 (_ FloatingPoint 11 53))
(declare-const x12 (_ FloatingPoint 11 53))
(declare-const x13 (_ FloatingPoint 11 53))
(assert (fp.gt (fp.mul RNE x9 x6) (fp.div RNE x5 x6)))
(assert (fp.gt (fp.sub RNE x4 x1) (fp.sub RNE x0 x11)))
(assert (fp.leq (fp.add RNE x10 x2) (fp.mul RNE x9 x7)))
(assert (fp.geq (fp.mul RNE x6 x9) (fp.sub RNE x7 x0)))
(assert (fp.gt (fp.mul RNE x6 x7) (fp.add RNE x0 x2)))
(assert (fp.gt (fp.div RNE x12 x10) (fp.sub RNE x0 x10)))
(assert (fp.geq (fp.sub RNE x1 x4) (fp.neg x10)))
(assert (fp.gt (fp.sub RNE x10 x1) (fp.mul RNE x2 x11)))
(assert (fp.gt (fp.mul RNE x9 x11) (fp.div RNE x12 x7)))
(assert (fp.leq (fp.div RNE x11 x8) (fp.neg x0)))
(assert (fp.gt (fp.div RNE x9 x8) (fp.div RNE x2 x0)))
(assert (fp.eq (fp.neg x1) (fp.div RNE x13 x12)))
(assert (fp.eq (fp.sub RNE x9 x1) (fp.add RNE x4 x9)))
(check-sat)
