db/data/196703885452712847263713022940077807.z3.out
-------------------
2500.134311716
